
Gurobi 10.0.3 (linux64, gurobi_cl) logging started Thu Nov  9 12:55:52 2023

Set parameter Username
Set parameter TimeLimit to value 3600
Set parameter LogFile to value "RCPSP_1471.log"
Set parameter Threads to value 32
Academic license - for non-commercial use only - expires 2024-10-30
Using license file /home/jrivera6/gurobi-licenses/v1003/compute-0-37/gurobi.lic

Gurobi Optimizer version 10.0.3 build v10.0.3rc0 (linux64)
Copyright (c) 2023, Gurobi Optimization, LLC

Read MPS format model from file RCPSP_1471.mps
Reading time = 0.09 seconds
RCPSP_1471: 75214 rows, 29890 columns, 236988 nonzeros

CPU model: Intel(R) Xeon(R) Gold 6242 CPU @ 2.80GHz, instruction set [SSE2|AVX|AVX2|AVX512]
Thread count: 32 physical cores, 32 logical processors, using up to 32 threads

Optimize a model with 75214 rows, 29890 columns and 236988 nonzeros
Model fingerprint: 0x937e7472
Variable types: 122 continuous, 29768 integer (29768 binary)
Coefficient statistics:
  Matrix range     [1e+00, 6e+02]
  Objective range  [1e+00, 1e+00]
  Bounds range     [1e+00, 1e+00]
  RHS range        [1e+00, 6e+02]
Presolve removed 11054 rows and 1545 columns (presolve time = 5s) ...
Presolve removed 12461 rows and 2204 columns
Presolve time: 6.42s
Presolved: 62753 rows, 27686 columns, 206453 nonzeros
Variable types: 121 continuous, 27565 integer (27565 binary)

Deterministic concurrent LP optimizer: primal and dual simplex (primal and dual model)
Showing first log only...

Root relaxation presolved: 62753 rows, 27686 columns, 206453 nonzeros


Root simplex log...

Iteration    Objective       Primal Inf.    Dual Inf.      Time
       0    7.1623928e+01   4.357886e-02   2.428877e+08      9s
    4470    7.0000000e+01   0.000000e+00   0.000000e+00     10s
Concurrent spin time: 1.52s

Solved with dual simplex (primal model)

Root relaxation: objective 7.000000e+01, 9988 iterations, 4.71 seconds (0.45 work units)
Total elapsed time = 16.46s

    Nodes    |    Current Node    |     Objective Bounds      |     Work
 Expl Unexpl |  Obj  Depth IntInf | Incumbent    BestBd   Gap | It/Node Time

     0     0   70.00000    0   40          -   70.00000      -     -   18s
     0     0   73.00877    0  376          -   73.00877      -     -   51s
     0     0   73.00891    0  260          -   73.00891      -     -   52s
     0     0   73.59292    0  232          -   73.59292      -     -   63s
     0     0   74.00000    0  260          -   74.00000      -     -   65s
     0     0   74.00000    0  278          -   74.00000      -     -   66s
     0     0   74.00000    0  613          -   74.00000      -     -   73s
     0     0   74.00000    0  573          -   74.00000      -     -   76s
     0     0   74.00000    0  683          -   74.00000      -     -   87s
     0     0   74.00000    0  618          -   74.00000      -     -   87s
     0     0   74.00000    0  502          -   74.00000      -     -   94s
     0     0   74.00000    0  455          -   74.00000      -     -   96s
     0     0   74.00000    0  455          -   74.00000      -     -   97s
     0     0   74.00000    0  467          -   74.00000      -     -   98s
     0     0   74.00000    0  453          -   74.00000      -     -   98s
     0     0   74.00000    0   30          -   74.00000      -     -  109s
     0     0   74.00000    0  491          -   74.00000      -     -  124s
     0     0   74.00000    0   35          -   74.00000      -     -  140s
     0     0   74.00000    0  110          -   74.00000      -     -  142s
     0     0   74.00000    0   20          -   74.00000      -     -  158s
     0     0   74.00000    0   20          -   74.00000      -     -  159s
     0     0   74.00000    0   16          -   74.00000      -     -  172s
     0     0   74.00000    0   38          -   74.00000      -     -  178s
     0     0   74.00000    0    2          -   74.00000      -     -  195s
H    0     0                      74.0000000   74.00000  0.00%     -  197s
     0     0   74.00000    0    2   74.00000   74.00000  0.00%     -  197s

Cutting planes:
  Gomory: 1
  Cover: 12
  Implied bound: 47
  MIR: 87
  StrongCG: 3
  RLT: 94
  Relax-and-lift: 126

Explored 1 nodes (73818 simplex iterations) in 200.04 seconds (22.99 work units)
Thread count was 32 (of 32 available processors)

Solution count 1: 74 

Optimal solution found (tolerance 1.00e-04)
Best objective 7.400000000000e+01, best bound 7.400000000000e+01, gap 0.0000%

Wrote result file 'RCPSP_1471.sol'

